\ENCODING=ISO-8859-1
\Problem name: configuracion1

Maximize
 obj1: 6 x1 + 12 x2 + 10 x3
Subject To
 C_Tierra:      x1 + x2 + x3 <= 600
 C_DiasHombre:  5 x1 + 8 x2 + 13 x3 <= 4000
 C_Presupuesto: 12 x1 + 18 x2 + 14 x3 <= 6000
End
